certificates/rado_a6_c200_N33.cnf
c Rad2 upper bound instance: x1 + 6*x2 - x3 = 200, interval [1,33]
p cnf 33 192
1 3 33 0
-1 -3 -33 0
2 4 33 0
-2 -4 -33 0
3 5 33 0
-3 -5 -33 0
4 6 33 0
-4 -6 -33 0
5 7 33 0
-5 -7 -33 0
6 8 33 0
-6 -8 -33 0
1 9 32 0
-1 -9 -32 0
7 9 33 0
-7 -9 -33 0
2 10 32 0
-2 -10 -32 0
8 10 33 0
-8 -10 -33 0
3 11 32 0
-3 -11 -32 0
9 11 33 0
-9 -11 -33 0
4 12 32 0
-4 -12 -32 0
10 12 33 0
-10 -12 -33 0
5 13 32 0
-5 -13 -32 0
11 13 33 0
-11 -13 -33 0
6 14 32 0
-6 -14 -32 0
12 14 33 0
-12 -14 -33 0
1 15 31 0
-1 -15 -31 0
7 15 32 0
-7 -15 -32 0
13 15 33 0
-13 -15 -33 0
2 16 31 0
-2 -16 -31 0
8 16 32 0
-8 -16 -32 0
14 16 33 0
-14 -16 -33 0
3 17 31 0
-3 -17 -31 0
9 17 32 0
-9 -17 -32 0
15 17 33 0
-15 -17 -33 0
4 18 31 0
-4 -18 -31 0
10 18 32 0
-10 -18 -32 0
16 18 33 0
-16 -18 -33 0
5 19 31 0
-5 -19 -31 0
11 19 32 0
-11 -19 -32 0
17 19 33 0
-17 -19 -33 0
6 20 31 0
-6 -20 -31 0
12 20 32 0
-12 -20 -32 0
18 20 33 0
-18 -20 -33 0
1 21 30 0
-1 -21 -30 0
7 21 31 0
-7 -21 -31 0
13 21 32 0
-13 -21 -32 0
19 21 33 0
-19 -21 -33 0
2 22 30 0
-2 -22 -30 0
8 22 31 0
-8 -22 -31 0
14 22 32 0
-14 -22 -32 0
20 22 33 0
-20 -22 -33 0
3 23 30 0
-3 -23 -30 0
9 23 31 0
-9 -23 -31 0
15 23 32 0
-15 -23 -32 0
21 23 33 0
-21 -23 -33 0
4 24 30 0
-4 -24 -30 0
10 24 31 0
-10 -24 -31 0
16 24 32 0
-16 -24 -32 0
22 24 33 0
-22 -24 -33 0
5 25 30 0
-5 -25 -30 0
11 25 31 0
-11 -25 -31 0
17 25 32 0
-17 -25 -32 0
23 25 33 0
-23 -25 -33 0
6 26 30 0
-6 -26 -30 0
12 26 31 0
-12 -26 -31 0
18 26 32 0
-18 -26 -32 0
24 26 33 0
-24 -26 -33 0
1 27 29 0
-1 -27 -29 0
7 27 30 0
-7 -27 -30 0
13 27 31 0
-13 -27 -31 0
19 27 32 0
-19 -27 -32 0
25 27 33 0
-25 -27 -33 0
2 28 29 0
-2 -28 -29 0
8 28 30 0
-8 -28 -30 0
14 28 31 0
-14 -28 -31 0
20 28 32 0
-20 -28 -32 0
26 28 33 0
-26 -28 -33 0
3 29 0
-3 -29 0
9 29 30 0
-9 -29 -30 0
15 29 31 0
-15 -29 -31 0
21 29 32 0
-21 -29 -32 0
27 29 33 0
-27 -29 -33 0
4 29 30 0
-4 -29 -30 0
10 30 0
-10 -30 0
16 30 31 0
-16 -30 -31 0
22 30 32 0
-22 -30 -32 0
28 30 33 0
-28 -30 -33 0
5 29 31 0
-5 -29 -31 0
11 30 31 0
-11 -30 -31 0
17 31 0
-17 -31 0
23 31 32 0
-23 -31 -32 0
29 31 33 0
-29 -31 -33 0
6 29 32 0
-6 -29 -32 0
12 30 32 0
-12 -30 -32 0
18 31 32 0
-18 -31 -32 0
24 32 0
-24 -32 0
30 32 33 0
-30 -32 -33 0
1 28 33 0
-1 -28 -33 0
7 29 33 0
-7 -29 -33 0
13 30 33 0
-13 -30 -33 0
19 31 33 0
-19 -31 -33 0
25 32 33 0
-25 -32 -33 0
31 33 0
-31 -33 0
