certificates/rado_a6_c200_N33.drat
-33 0
31 0
-17 0
15 0
19 0
-1 0
-29 0
-5 0
3 0
28 0
27 0
7 0
-14 0
-13 0
-32 0
-21 0
-30 0
6 0
12 0
16 0
22 0
0
